Maximize
F - f1 - f2

Subject to
F - 2y60 - 4y170 - 2y3 - 6y186 - 6y81 - 2y14 - 2y138 - 2y182 - 4y127 - 4y52 - 4y91 - 6y171 - 8y31 - 2y105 - 4y119 - 8y80 - 4y101 - 8y89 - 4y77 = 0
f1 - 0.006700s60 - 0.006700s170 - 0.006700s3 - 0.006700s186 - 0.006700s81 - 0.006700s14 - 0.006700s138 - 0.006700s182 - 0.006700s127 - 0.006700s52 - 0.006700s91 - 0.006700s171 - 0.006700s31 - 0.006700s105 - 0.006700s119 - 0.006700s80 - 0.006700s101 - 0.006700s89 - 0.006700s77  = 0
f2 - 2.18y60 - 2.13y170 - 2.14y3 - 1.90y186 - 1.85y81 - 1.86y14 - 2.09y138 - 2.08y182 - 2.16y127 - 1.00y52 - 2.45y91 - 2.06y171 - 2.25y31 - 0.99y105 - 2.32y119 - 1.01y80 - 0.93y101 - 0.94y89 - 0.87y77 = 0

x106x60x1 + x106x3x1 + x106x186x1 + x106x52x1 + x106x171x1 + x106x31x1 + x106x119x1 + x106x80x1 + x106x101x1 
<= 1
x54x60x1 + x54x3x1 + x54x186x1 + x54x52x1 + x54x171x1 + x54x31x1 + x54x119x1 + x54x80x1 + x54x101x1 
<= 1
x185x60x1 + x185x3x1 + x185x186x1 + x185x52x1 + x185x171x1 + x185x31x1 + x185x119x1 + x185x80x1 + x185x101x1 
<= 1
x58x60x1 + x58x3x1 + x58x186x1 + x58x52x1 + x58x171x1 + x58x31x1 + x58x119x1 + x58x80x1 + x58x101x1 
<= 1
x74x60x1 + x74x3x1 + x74x186x1 + x74x52x1 + x74x171x1 + x74x31x1 + x74x119x1 + x74x80x1 + x74x101x1 
<= 1
x17x3x1 + x17x186x1 + x17x52x1 + x17x171x1 + x17x31x1 + x17x119x1 + x17x80x1 + x17x101x1 
<= 1

x54x60x2 + x54x170x2 + x54x81x2 + x54x14x2 + x54x182x2 + x54x52x2 + x54x89x2 + x54x77x2 
<= 1
x185x60x2 + x185x170x2 + x185x81x2 + x185x14x2 + x185x182x2 + x185x52x2 + x185x89x2 + x185x77x2 
<= 1
x58x60x2 + x58x170x2 + x58x81x2 + x58x14x2 + x58x182x2 + x58x52x2 + x58x89x2 + x58x77x2 
<= 1
x74x60x2 + x74x170x2 + x74x81x2 + x74x14x2 + x74x182x2 + x74x52x2 + x74x89x2 + x74x77x2 
<= 1
x124x60x2 + x124x170x2 + x124x81x2 + x124x14x2 + x124x182x2 + x124x52x2 + x124x89x2 + x124x77x2 
<= 1
x17x81x2 + x17x14x2 + x17x182x2 + x17x52x2 + x17x89x2 + x17x77x2 
<= 1

x132x81x3 + x132x138x3 + x132x182x3 + x132x127x3 + x132x91x3 + x132x31x3 + x132x105x3 + x132x80x3 + x132x101x3 + x132x89x3 
<= 1
x160x81x3 + x160x138x3 + x160x182x3 + x160x127x3 + x160x91x3 + x160x31x3 + x160x105x3 + x160x80x3 + x160x101x3 + x160x89x3 
<= 2
x124x81x3 + x124x138x3 + x124x182x3 + x124x127x3 + x124x91x3 + x124x31x3 + x124x105x3 + x124x80x3 + x124x101x3 + x124x89x3 
<= 1
x23x81x3 + x23x138x3 + x23x182x3 + x23x127x3 + x23x91x3 + x23x31x3 + x23x105x3 + x23x80x3 + x23x101x3 + x23x89x3 
<= 2
x106x60x1 + x54x60x1 + x185x60x1 + x58x60x1 + x74x60x1 
- x60x0x1
- x60x3x1 - x60x186x1 - x60x52x1 - x60x171x1 - x60x31x1 - x60x119x1 - x60x80x1 - x60x101x1 
= 0
x54x60x2 + x185x60x2 + x58x60x2 + x74x60x2 + x124x60x2 
- x60x0x2
- x60x81x2 - x60x14x2 - x60x182x2 - x60x52x2 - x60x89x2 - x60x77x2 
= 0



x54x170x2 + x185x170x2 + x58x170x2 + x74x170x2 + x124x170x2 
- x170x0x2
- x170x81x2 - x170x14x2 - x170x182x2 - x170x52x2 - x170x89x2 - x170x77x2 
= 0


x106x3x1 + x54x3x1 + x185x3x1 + x58x3x1 + x74x3x1 + x17x3x1 + x60x3x1 
- x3x0x1
- x3x186x1 - x3x52x1 - x3x171x1 - x3x31x1 - x3x119x1 - x3x80x1 - x3x101x1 
= 0



x106x186x1 + x54x186x1 + x185x186x1 + x58x186x1 + x74x186x1 + x17x186x1 + x60x186x1 + x3x186x1 
- x186x0x1
- x186x52x1 - x186x171x1 - x186x31x1 - x186x119x1 - x186x80x1 - x186x101x1 
= 0




x54x81x2 + x185x81x2 + x58x81x2 + x74x81x2 + x124x81x2 + x17x81x2 + x60x81x2 + x170x81x2 
- x81x0x2
- x81x14x2 - x81x182x2 - x81x52x2 - x81x89x2 - x81x77x2 
= 0
x132x81x3 + x160x81x3 + x124x81x3 + x23x81x3 
- x81x0x3
- x81x138x3 - x81x182x3 - x81x127x3 - x81x91x3 - x81x31x3 - x81x105x3 - x81x80x3 - x81x101x3 - x81x89x3 
= 0


x54x14x2 + x185x14x2 + x58x14x2 + x74x14x2 + x124x14x2 + x17x14x2 + x60x14x2 + x170x14x2 + x81x14x2 
- x14x0x2
- x14x52x2 - x14x89x2 - x14x77x2 
= 0




x132x138x3 + x160x138x3 + x124x138x3 + x23x138x3 + x81x138x3 
- x138x0x3
- x138x182x3 - x138x127x3 - x138x91x3 - x138x31x3 - x138x105x3 - x138x80x3 - x138x101x3 - x138x89x3 
= 0


x54x182x2 + x185x182x2 + x58x182x2 + x74x182x2 + x124x182x2 + x17x182x2 + x60x182x2 + x170x182x2 + x81x182x2 
- x182x0x2
- x182x89x2 - x182x77x2 
= 0
x132x182x3 + x160x182x3 + x124x182x3 + x23x182x3 + x81x182x3 + x138x182x3 
- x182x0x3
- x182x127x3 - x182x91x3 - x182x31x3 - x182x80x3 - x182x101x3 - x182x89x3 
= 0



x132x127x3 + x160x127x3 + x124x127x3 + x23x127x3 + x81x127x3 + x138x127x3 + x182x127x3 
- x127x0x3
- x127x91x3 - x127x31x3 - x127x101x3 - x127x89x3 
= 0

x106x52x1 + x54x52x1 + x185x52x1 + x58x52x1 + x74x52x1 + x17x52x1 + x60x52x1 + x3x52x1 + x186x52x1 
- x52x0x1
- x52x80x1 - x52x101x1 
= 0
x54x52x2 + x185x52x2 + x58x52x2 + x74x52x2 + x124x52x2 + x17x52x2 + x60x52x2 + x170x52x2 + x81x52x2 + x14x52x2 
- x52x0x2
- x52x89x2 - x52x77x2 
= 0




x132x91x3 + x160x91x3 + x124x91x3 + x23x91x3 + x81x91x3 + x138x91x3 + x182x91x3 + x127x91x3 
- x91x0x3

= 0

x106x171x1 + x54x171x1 + x185x171x1 + x58x171x1 + x74x171x1 + x17x171x1 + x60x171x1 + x3x171x1 + x186x171x1 
- x171x0x1
- x171x119x1 
= 0



x106x31x1 + x54x31x1 + x185x31x1 + x58x31x1 + x74x31x1 + x17x31x1 + x60x31x1 + x3x31x1 + x186x31x1 
- x31x0x1
- x31x119x1 
= 0

x132x31x3 + x160x31x3 + x124x31x3 + x23x31x3 + x81x31x3 + x138x31x3 + x182x31x3 + x127x31x3 
- x31x0x3

= 0



x132x105x3 + x160x105x3 + x124x105x3 + x23x105x3 + x81x105x3 + x138x105x3 
- x105x0x3
- x105x80x3 - x105x101x3 - x105x89x3 
= 0

x106x119x1 + x54x119x1 + x185x119x1 + x58x119x1 + x74x119x1 + x17x119x1 + x60x119x1 + x3x119x1 + x186x119x1 + x171x119x1 + x31x119x1 
- x119x0x1

= 0



x106x80x1 + x54x80x1 + x185x80x1 + x58x80x1 + x74x80x1 + x17x80x1 + x60x80x1 + x3x80x1 + x186x80x1 + x52x80x1 
- x80x0x1

= 0

x132x80x3 + x160x80x3 + x124x80x3 + x23x80x3 + x81x80x3 + x138x80x3 + x182x80x3 + x105x80x3 
- x80x0x3
- x80x89x3 
= 0

x106x101x1 + x54x101x1 + x185x101x1 + x58x101x1 + x74x101x1 + x17x101x1 + x60x101x1 + x3x101x1 + x186x101x1 + x52x101x1 
- x101x0x1

= 0

x132x101x3 + x160x101x3 + x124x101x3 + x23x101x3 + x81x101x3 + x138x101x3 + x182x101x3 + x127x101x3 + x105x101x3 
- x101x0x3
- x101x89x3 
= 0


x54x89x2 + x185x89x2 + x58x89x2 + x74x89x2 + x124x89x2 + x17x89x2 + x60x89x2 + x170x89x2 + x81x89x2 + x14x89x2 + x182x89x2 + x52x89x2 
- x89x0x2
- x89x77x2 
= 0
x132x89x3 + x160x89x3 + x124x89x3 + x23x89x3 + x81x89x3 + x138x89x3 + x182x89x3 + x127x89x3 + x105x89x3 + x80x89x3 + x101x89x3 
- x89x0x3

= 0


x54x77x2 + x185x77x2 + x58x77x2 + x74x77x2 + x124x77x2 + x17x77x2 + x60x77x2 + x170x77x2 + x81x77x2 + x14x77x2 + x182x77x2 + x52x77x2 + x89x77x2 
- x77x0x2

= 0


1y60 - x106x60x1 - x54x60x1 - x185x60x1 - x58x60x1 - x74x60x1 = 0
1y60 - x54x60x2 - x185x60x2 - x58x60x2 - x74x60x2 - x124x60x2 = 0
2y170 - x54x170x2 - x185x170x2 - x58x170x2 - x74x170x2 - x124x170x2 = 0
2y3 - x106x3x1 - x54x3x1 - x185x3x1 - x58x3x1 - x74x3x1 - x17x3x1 - x60x3x1 = 0
2y186 - x106x186x1 - x54x186x1 - x185x186x1 - x58x186x1 - x74x186x1 - x17x186x1 - x60x186x1 - x3x186x1 = 0
1y81 - x54x81x2 - x185x81x2 - x58x81x2 - x74x81x2 - x124x81x2 - x17x81x2 - x60x81x2 - x170x81x2 = 0
1y81 - x132x81x3 - x160x81x3 - x124x81x3 - x23x81x3 = 0
2y14 - x54x14x2 - x185x14x2 - x58x14x2 - x74x14x2 - x124x14x2 - x17x14x2 - x60x14x2 - x170x14x2 - x81x14x2 = 0
2y138 - x132x138x3 - x160x138x3 - x124x138x3 - x23x138x3 - x81x138x3 = 0
1y182 - x54x182x2 - x185x182x2 - x58x182x2 - x74x182x2 - x124x182x2 - x17x182x2 - x60x182x2 - x170x182x2 - x81x182x2 = 0
1y182 - x132x182x3 - x160x182x3 - x124x182x3 - x23x182x3 - x81x182x3 - x138x182x3 = 0
2y127 - x132x127x3 - x160x127x3 - x124x127x3 - x23x127x3 - x81x127x3 - x138x127x3 - x182x127x3 = 0
1y52 - x106x52x1 - x54x52x1 - x185x52x1 - x58x52x1 - x74x52x1 - x17x52x1 - x60x52x1 - x3x52x1 - x186x52x1 = 0
1y52 - x54x52x2 - x185x52x2 - x58x52x2 - x74x52x2 - x124x52x2 - x17x52x2 - x60x52x2 - x170x52x2 - x81x52x2 - x14x52x2 = 0
2y91 - x132x91x3 - x160x91x3 - x124x91x3 - x23x91x3 - x81x91x3 - x138x91x3 - x182x91x3 - x127x91x3 = 0
2y171 - x106x171x1 - x54x171x1 - x185x171x1 - x58x171x1 - x74x171x1 - x17x171x1 - x60x171x1 - x3x171x1 - x186x171x1 = 0
1y31 - x106x31x1 - x54x31x1 - x185x31x1 - x58x31x1 - x74x31x1 - x17x31x1 - x60x31x1 - x3x31x1 - x186x31x1 = 0
1y31 - x132x31x3 - x160x31x3 - x124x31x3 - x23x31x3 - x81x31x3 - x138x31x3 - x182x31x3 - x127x31x3 = 0
2y105 - x132x105x3 - x160x105x3 - x124x105x3 - x23x105x3 - x81x105x3 - x138x105x3 = 0
2y119 - x106x119x1 - x54x119x1 - x185x119x1 - x58x119x1 - x74x119x1 - x17x119x1 - x60x119x1 - x3x119x1 - x186x119x1 - x171x119x1 - x31x119x1 = 0
1y80 - x106x80x1 - x54x80x1 - x185x80x1 - x58x80x1 - x74x80x1 - x17x80x1 - x60x80x1 - x3x80x1 - x186x80x1 - x52x80x1 = 0
1y80 - x132x80x3 - x160x80x3 - x124x80x3 - x23x80x3 - x81x80x3 - x138x80x3 - x182x80x3 - x105x80x3 = 0
1y101 - x106x101x1 - x54x101x1 - x185x101x1 - x58x101x1 - x74x101x1 - x17x101x1 - x60x101x1 - x3x101x1 - x186x101x1 - x52x101x1 = 0
1y101 - x132x101x3 - x160x101x3 - x124x101x3 - x23x101x3 - x81x101x3 - x138x101x3 - x182x101x3 - x127x101x3 - x105x101x3 = 0
1y89 - x54x89x2 - x185x89x2 - x58x89x2 - x74x89x2 - x124x89x2 - x17x89x2 - x60x89x2 - x170x89x2 - x81x89x2 - x14x89x2 - x182x89x2 - x52x89x2 = 0
1y89 - x132x89x3 - x160x89x3 - x124x89x3 - x23x89x3 - x81x89x3 - x138x89x3 - x182x89x3 - x127x89x3 - x105x89x3 - x80x89x3 - x101x89x3 = 0
2y77 - x54x77x2 - x185x77x2 - x58x77x2 - x74x77x2 - x124x77x2 - x17x77x2 - x60x77x2 - x170x77x2 - x81x77x2 - x14x77x2 - x182x77x2 - x52x77x2 - x89x77x2 = 0

s106 - s60 + 6.194412z106z60z1 <= 4.57
s106 - s3 + 6.200894z106z3z1 <= 4.57
s106 - s186 + 6.250137z106z186z1 <= 4.57
s106 - s52 + 6.396773z106z52z1 <= 4.57
s106 - s171 + 6.377348z106z171z1 <= 4.57
s106 - s31 + 6.353907z106z31z1 <= 4.57
s106 - s119 + 6.349613z106z119z1 <= 4.57
s106 - s80 + 6.369740z106z80z1 <= 4.57
s106 - s101 + 6.391785z106z101z1 <= 4.57
s54 - s60 + 6.724952z54z60z1 <= 5.15
s54 - s60 + 6.724952z54z60z2 <= 5.15
s54 - s170 + 6.744795z54z170z2 <= 5.15
s54 - s3 + 6.731399z54z3z1 <= 5.15
s54 - s186 + 6.780170z54z186z1 <= 5.15
s54 - s81 + 6.775229z54z81z2 <= 5.15
s54 - s14 + 6.754175z54z14z2 <= 5.15
s54 - s182 + 6.876236z54z182z2 <= 5.15
s54 - s52 + 6.927051z54z52z1 <= 5.15
s54 - s52 + 6.927051z54z52z2 <= 5.15
s54 - s171 + 6.906758z54z171z1 <= 5.15
s54 - s31 + 6.883568z54z31z1 <= 5.15
s54 - s119 + 6.879453z54z119z1 <= 5.15
s54 - s80 + 6.900991z54z80z1 <= 5.15
s54 - s101 + 6.922648z54z101z1 <= 5.15
s54 - s89 + 6.913709z54z89z2 <= 5.15
s54 - s77 + 6.930914z54z77z2 <= 5.15
s132 - s81 + 6.297963z132z81z3 <= 4.82
s132 - s138 + 6.556904z132z138z3 <= 4.82
s132 - s182 + 6.565956z132z182z3 <= 4.82
s132 - s127 + 6.574516z132z127z3 <= 4.82
s132 - s91 + 6.610643z132z91z3 <= 4.82
s132 - s31 + 6.613085z132z31z3 <= 4.82
s132 - s105 + 6.357405z132z105z3 <= 4.82
s132 - s80 + 6.319693z132z80z3 <= 4.82
s132 - s101 + 6.348062z132z101z3 <= 4.82
s132 - s89 + 6.329208z132z89z3 <= 4.82
s185 - s60 + 6.965304z185z60z1 <= 5.38
s185 - s60 + 6.965304z185z60z2 <= 5.38
s185 - s170 + 6.997691z185z170z2 <= 5.38
s185 - s3 + 6.966867z185z3z1 <= 5.38
s185 - s186 + 6.994536z185z186z1 <= 5.38
s185 - s81 + 6.958701z185z81z2 <= 5.38
s185 - s14 + 6.895977z185z14z2 <= 5.38
s185 - s182 + 7.225092z185z182z2 <= 5.38
s185 - s52 + 7.012095z185z52z1 <= 5.38
s185 - s52 + 7.012095z185z52z2 <= 5.38
s185 - s171 + 7.265836z185z171z1 <= 5.38
s185 - s31 + 7.275127z185z31z1 <= 5.38
s185 - s119 + 7.285505z185z119z1 <= 5.38
s185 - s80 + 6.951396z185z80z1 <= 5.38
s185 - s101 + 6.976796z185z101z1 <= 5.38
s185 - s89 + 6.958392z185z89z2 <= 5.38
s185 - s77 + 6.974846z185z77z2 <= 5.38
s58 - s60 + 6.914992z58z60z1 <= 5.48
s58 - s60 + 6.914992z58z60z2 <= 5.48
s58 - s170 + 6.935532z58z170z2 <= 5.48
s58 - s3 + 6.921463z58z3z1 <= 5.48
s58 - s186 + 6.970730z58z186z1 <= 5.48
s58 - s81 + 6.965183z58z81z2 <= 5.48
s58 - s14 + 6.944425z58z14z2 <= 5.48
s58 - s182 + 7.079254z58z182z2 <= 5.48
s58 - s52 + 7.117309z58z52z1 <= 5.48
s58 - s52 + 7.117309z58z52z2 <= 5.48
s58 - s171 + 7.112306z58z171z1 <= 5.48
s58 - s31 + 7.091491z58z31z1 <= 5.48
s58 - s119 + 7.088853z58z119z1 <= 5.48
s58 - s80 + 7.090842z58z80z1 <= 5.48
s58 - s101 + 7.112550z58z101z1 <= 5.48
s58 - s89 + 7.103560z58z89z2 <= 5.48
s58 - s77 + 7.120794z58z77z2 <= 5.48
s74 - s60 + 7.067852z74z60z1 <= 5.64
s74 - s60 + 7.067852z74z60z2 <= 5.64
s74 - s170 + 7.089221z74z170z2 <= 5.64
s74 - s3 + 7.074363z74z3z1 <= 5.64
s74 - s186 + 7.124228z74z186z1 <= 5.64
s74 - s81 + 7.117838z74z81z2 <= 5.64
s74 - s14 + 7.095671z74z14z2 <= 5.64
s74 - s182 + 7.237792z74z182z2 <= 5.64
s74 - s52 + 7.270414z74z52z1 <= 5.64
s74 - s52 + 7.270414z74z52z2 <= 5.64
s74 - s171 + 7.271466z74z171z1 <= 5.64
s74 - s31 + 7.251266z74z31z1 <= 5.64
s74 - s119 + 7.248981z74z119z1 <= 5.64
s74 - s80 + 7.242953z74z80z1 <= 5.64
s74 - s101 + 7.265018z74z101z1 <= 5.64
s74 - s89 + 7.255740z74z89z2 <= 5.64
s74 - s77 + 7.273182z74z77z2 <= 5.64
s160 - s81 + 6.766165z160z81z3 <= 5.30
s160 - s138 + 6.875013z160z138z3 <= 5.30
s160 - s182 + 6.882893z160z182z3 <= 5.30
s160 - s127 + 6.879314z160z127z3 <= 5.30
s160 - s91 + 6.868716z160z91z3 <= 5.30
s160 - s31 + 6.896244z160z31z3 <= 5.30
s160 - s105 + 6.910033z160z105z3 <= 5.30
s160 - s80 + 6.891878z160z80z3 <= 5.30
s160 - s101 + 6.913542z160z101z3 <= 5.30
s160 - s89 + 6.904585z160z89z3 <= 5.30
s124 - s60 + 7.197762z124z60z2 <= 5.78
s124 - s170 + 7.216278z124z170z2 <= 5.78
s124 - s81 + 7.248338z124z81z2 <= 5.78
s124 - s81 + 7.248338z124z81z3 <= 5.78
s124 - s14 + 7.231750z124z14z2 <= 5.78
s124 - s138 + 7.344616z124z138z3 <= 5.78
s124 - s182 + 7.352262z124z182z2 <= 5.78
s124 - s182 + 7.352262z124z182z3 <= 5.78
s124 - s127 + 7.348058z124z127z3 <= 5.78
s124 - s52 + 7.399065z124z52z2 <= 5.78
s124 - s91 + 7.334971z124z91z3 <= 5.78
s124 - s31 + 7.363425z124z31z3 <= 5.78
s124 - s105 + 7.391826z124z105z3 <= 5.78
s124 - s80 + 7.375205z124z80z3 <= 5.78
s124 - s101 + 7.395910z124z101z3 <= 5.78
s124 - s89 + 7.387713z124z89z2 <= 5.78
s124 - s89 + 7.387713z124z89z3 <= 5.78
s124 - s77 + 7.404358z124z77z2 <= 5.78
s23 - s81 + 7.308081z23z81z3 <= 5.97
s23 - s138 + 7.566868z23z138z3 <= 5.97
s23 - s182 + 7.575930z23z182z3 <= 5.97
s23 - s127 + 7.584458z23z127z3 <= 5.97
s23 - s91 + 7.620885z23z91z3 <= 5.97
s23 - s31 + 7.623042z23z31z3 <= 5.97
s23 - s105 + 7.376019z23z105z3 <= 5.97
s23 - s80 + 7.338537z23z80z3 <= 5.97
s23 - s101 + 7.367772z23z101z3 <= 5.97
s23 - s89 + 7.349087z23z89z3 <= 5.97
s17 - s3 + 7.307371z17z3z1 <= 5.97
s17 - s186 + 7.343088z17z186z1 <= 5.97
s17 - s81 + 7.307567z17z81z2 <= 5.97
s17 - s14 + 7.241399z17z14z2 <= 5.97
s17 - s182 + 7.575527z17z182z2 <= 5.97
s17 - s52 + 7.397094z17z52z1 <= 5.97
s17 - s52 + 7.397094z17z52z2 <= 5.97
s17 - s171 + 7.617626z17z171z1 <= 5.97
s17 - s31 + 7.622762z17z31z1 <= 5.97
s17 - s119 + 7.631813z17z119z1 <= 5.97
s17 - s80 + 7.336473z17z80z1 <= 5.97
s17 - s101 + 7.365625z17z101z1 <= 5.97
s17 - s89 + 7.346908z17z89z2 <= 5.97
s17 - s77 + 7.366849z17z77z2 <= 5.97
s60 - s3 + 8.286667z60z3z1 <= 7.28
s60 - s186 + 8.341464z60z186z1 <= 7.28
s60 - s81 + 8.330772z60z81z2 <= 7.28
s60 - s14 + 8.353636z60z14z2 <= 7.28
s60 - s182 + 8.556004z60z182z2 <= 7.28
s60 - s52 + 8.482759z60z52z1 <= 7.28
s60 - s52 + 8.482759z60z52z2 <= 7.28
s60 - s171 + 8.598678z60z171z1 <= 7.28
s60 - s31 + 8.600139z60z31z1 <= 7.28
s60 - s119 + 8.608295z60z119z1 <= 7.28
s60 - s80 + 8.458885z60z80z1 <= 7.28
s60 - s101 + 8.478214z60z101z1 <= 7.28
s60 - s89 + 8.470904z60z89z2 <= 7.28
s60 - s77 + 8.486774z60z77z2 <= 7.28
s170 - s81 + 8.330772z170z81z2 <= 7.28
s170 - s14 + 8.381981z170z14z2 <= 7.28
s170 - s182 + 8.518701z170z182z2 <= 7.28
s170 - s52 + 8.463425z170z52z2 <= 7.28
s170 - s89 + 8.461353z170z89z2 <= 7.28
s170 - s77 + 8.474365z170z77z2 <= 7.28
s3 - s186 + 8.364975z3z186z1 <= 7.31
s3 - s52 + 8.506186z3z52z1 <= 7.31
s3 - s171 + 8.624678z3z171z1 <= 7.31
s3 - s31 + 8.626719z3z31z1 <= 7.31
s3 - s119 + 8.635098z3z119z1 <= 7.31
s3 - s80 + 8.482948z3z80z1 <= 7.31
s3 - s101 + 8.501949z3z101z1 <= 7.31
s186 - s52 + 8.577573z186z52z1 <= 7.43
s186 - s171 + 8.704550z186z171z1 <= 7.43
s186 - s31 + 8.711030z186z31z1 <= 7.43
s186 - s119 + 8.721051z186z119z1 <= 7.43
s186 - s80 + 8.566789z186z80z1 <= 7.43
s186 - s101 + 8.579815z186z101z1 <= 7.43
s81 - s14 + 8.576667z81z14z2 <= 7.51
s81 - s138 + 8.769402z81z138z3 <= 7.51
s81 - s182 + 8.778328z81z182z2 <= 7.51
s81 - s182 + 8.778328z81z182z3 <= 7.51
s81 - s127 + 8.787529z81z127z3 <= 7.51
s81 - s52 + 8.663912z81z52z2 <= 7.51
s81 - s91 + 8.828678z81z91z3 <= 7.51
s81 - s31 + 8.826930z81z31z3 <= 7.51
s81 - s105 + 8.653913z81z105z3 <= 7.51
s81 - s80 + 8.638236z81z80z3 <= 7.51
s81 - s101 + 8.657574z81z101z3 <= 7.51
s81 - s89 + 8.650159z81z89z2 <= 7.51
s81 - s89 + 8.650159z81z89z3 <= 7.51
s81 - s77 + 8.666063z81z77z2 <= 7.51
s14 - s52 + 8.857428z14z52z2 <= 7.66
s14 - s89 + 8.826799z14z89z2 <= 7.66
s14 - s77 + 8.846666z14z77z2 <= 7.66
s138 - s182 + 8.799428z138z182z3 <= 7.79
s138 - s127 + 8.809999z138z127z3 <= 7.79
s138 - s91 + 8.868032z138z91z3 <= 7.79
s138 - s31 + 8.850369z138z31z3 <= 7.79
s138 - s105 + 9.057997z138z105z3 <= 7.79
s138 - s80 + 9.083333z138z80z3 <= 7.79
s138 - s101 + 9.071267z138z101z3 <= 7.79
s138 - s89 + 9.083636z138z89z3 <= 7.79
s182 - s127 + 8.854907z182z127z3 <= 7.84
s182 - s91 + 8.914536z182z91z3 <= 7.84
s182 - s31 + 8.893333z182z31z3 <= 7.84
s182 - s80 + 9.140074z182z80z3 <= 7.84
s182 - s101 + 9.127363z182z101z3 <= 7.84
s182 - s89 + 9.140074z182z89z2 <= 7.84
s182 - s89 + 9.140074z182z89z3 <= 7.84
s182 - s77 + 9.134543z182z77z2 <= 7.84
s127 - s91 + 8.929628z127z91z3 <= 7.87
s127 - s31 + 8.910552z127z31z3 <= 7.87
s127 - s101 + 9.171183z127z101z3 <= 7.87
s127 - s89 + 9.183617z127z89z3 <= 7.87
s52 - s80 + 9.111464z52z80z1 <= 8.05
s52 - s101 + 9.085901z52z101z1 <= 8.05
s52 - s89 + 9.103748z52z89z2 <= 8.05
s52 - s77 + 9.090552z52z77z2 <= 8.05
s171 - s119 + 9.107141z171z119z1 <= 8.06
s31 - s119 + 9.094907z31z119z1 <= 8.08
s105 - s80 + 9.147712z105z80z3 <= 8.11
s105 - s101 + 9.123333z105z101z3 <= 8.11
s105 - s89 + 9.139814z105z89z3 <= 8.11
s80 - s89 + 9.183333z80z89z3 <= 8.17
s101 - s89 + 9.198856z101z89z3 <= 8.18
s89 - s77 + 9.231082z89z77z2 <= 8.21

x106x60x1 - 1z106z60z1 <= 0
x106x3x1 - 2z106z3z1 <= 0
x106x186x1 - 2z106z186z1 <= 0
x106x52x1 - 1z106z52z1 <= 0
x106x171x1 - 2z106z171z1 <= 0
x106x31x1 - 1z106z31z1 <= 0
x106x119x1 - 2z106z119z1 <= 0
x106x80x1 - 1z106z80z1 <= 0
x106x101x1 - 1z106z101z1 <= 0
x54x60x1 - 1z54z60z1 <= 0
x54x60x2 - 1z54z60z2 <= 0
x54x170x2 - 2z54z170z2 <= 0
x54x3x1 - 2z54z3z1 <= 0
x54x186x1 - 2z54z186z1 <= 0
x54x81x2 - 1z54z81z2 <= 0
x54x14x2 - 2z54z14z2 <= 0
x54x182x2 - 1z54z182z2 <= 0
x54x52x1 - 1z54z52z1 <= 0
x54x52x2 - 1z54z52z2 <= 0
x54x171x1 - 2z54z171z1 <= 0
x54x31x1 - 1z54z31z1 <= 0
x54x119x1 - 2z54z119z1 <= 0
x54x80x1 - 1z54z80z1 <= 0
x54x101x1 - 1z54z101z1 <= 0
x54x89x2 - 1z54z89z2 <= 0
x54x77x2 - 2z54z77z2 <= 0
x132x81x3 - 1z132z81z3 <= 0
x132x138x3 - 2z132z138z3 <= 0
x132x182x3 - 1z132z182z3 <= 0
x132x127x3 - 2z132z127z3 <= 0
x132x91x3 - 2z132z91z3 <= 0
x132x31x3 - 1z132z31z3 <= 0
x132x105x3 - 2z132z105z3 <= 0
x132x80x3 - 1z132z80z3 <= 0
x132x101x3 - 1z132z101z3 <= 0
x132x89x3 - 1z132z89z3 <= 0
x185x60x1 - 1z185z60z1 <= 0
x185x60x2 - 1z185z60z2 <= 0
x185x170x2 - 2z185z170z2 <= 0
x185x3x1 - 2z185z3z1 <= 0
x185x186x1 - 2z185z186z1 <= 0
x185x81x2 - 1z185z81z2 <= 0
x185x14x2 - 2z185z14z2 <= 0
x185x182x2 - 1z185z182z2 <= 0
x185x52x1 - 1z185z52z1 <= 0
x185x52x2 - 1z185z52z2 <= 0
x185x171x1 - 2z185z171z1 <= 0
x185x31x1 - 1z185z31z1 <= 0
x185x119x1 - 2z185z119z1 <= 0
x185x80x1 - 1z185z80z1 <= 0
x185x101x1 - 1z185z101z1 <= 0
x185x89x2 - 1z185z89z2 <= 0
x185x77x2 - 2z185z77z2 <= 0
x58x60x1 - 1z58z60z1 <= 0
x58x60x2 - 1z58z60z2 <= 0
x58x170x2 - 2z58z170z2 <= 0
x58x3x1 - 2z58z3z1 <= 0
x58x186x1 - 2z58z186z1 <= 0
x58x81x2 - 1z58z81z2 <= 0
x58x14x2 - 2z58z14z2 <= 0
x58x182x2 - 1z58z182z2 <= 0
x58x52x1 - 1z58z52z1 <= 0
x58x52x2 - 1z58z52z2 <= 0
x58x171x1 - 2z58z171z1 <= 0
x58x31x1 - 1z58z31z1 <= 0
x58x119x1 - 2z58z119z1 <= 0
x58x80x1 - 1z58z80z1 <= 0
x58x101x1 - 1z58z101z1 <= 0
x58x89x2 - 1z58z89z2 <= 0
x58x77x2 - 2z58z77z2 <= 0
x74x60x1 - 1z74z60z1 <= 0
x74x60x2 - 1z74z60z2 <= 0
x74x170x2 - 2z74z170z2 <= 0
x74x3x1 - 2z74z3z1 <= 0
x74x186x1 - 2z74z186z1 <= 0
x74x81x2 - 1z74z81z2 <= 0
x74x14x2 - 2z74z14z2 <= 0
x74x182x2 - 1z74z182z2 <= 0
x74x52x1 - 1z74z52z1 <= 0
x74x52x2 - 1z74z52z2 <= 0
x74x171x1 - 2z74z171z1 <= 0
x74x31x1 - 1z74z31z1 <= 0
x74x119x1 - 2z74z119z1 <= 0
x74x80x1 - 1z74z80z1 <= 0
x74x101x1 - 1z74z101z1 <= 0
x74x89x2 - 1z74z89z2 <= 0
x74x77x2 - 2z74z77z2 <= 0
x160x81x3 - 1z160z81z3 <= 0
x160x138x3 - 2z160z138z3 <= 0
x160x182x3 - 1z160z182z3 <= 0
x160x127x3 - 2z160z127z3 <= 0
x160x91x3 - 2z160z91z3 <= 0
x160x31x3 - 1z160z31z3 <= 0
x160x105x3 - 2z160z105z3 <= 0
x160x80x3 - 1z160z80z3 <= 0
x160x101x3 - 1z160z101z3 <= 0
x160x89x3 - 1z160z89z3 <= 0
x124x60x2 - 1z124z60z2 <= 0
x124x170x2 - 2z124z170z2 <= 0
x124x81x2 - 1z124z81z2 <= 0
x124x81x3 - 1z124z81z3 <= 0
x124x14x2 - 2z124z14z2 <= 0
x124x138x3 - 2z124z138z3 <= 0
x124x182x2 - 1z124z182z2 <= 0
x124x182x3 - 1z124z182z3 <= 0
x124x127x3 - 2z124z127z3 <= 0
x124x52x2 - 1z124z52z2 <= 0
x124x91x3 - 2z124z91z3 <= 0
x124x31x3 - 1z124z31z3 <= 0
x124x105x3 - 2z124z105z3 <= 0
x124x80x3 - 1z124z80z3 <= 0
x124x101x3 - 1z124z101z3 <= 0
x124x89x2 - 1z124z89z2 <= 0
x124x89x3 - 1z124z89z3 <= 0
x124x77x2 - 2z124z77z2 <= 0
x23x81x3 - 1z23z81z3 <= 0
x23x138x3 - 2z23z138z3 <= 0
x23x182x3 - 1z23z182z3 <= 0
x23x127x3 - 2z23z127z3 <= 0
x23x91x3 - 2z23z91z3 <= 0
x23x31x3 - 1z23z31z3 <= 0
x23x105x3 - 2z23z105z3 <= 0
x23x80x3 - 1z23z80z3 <= 0
x23x101x3 - 1z23z101z3 <= 0
x23x89x3 - 1z23z89z3 <= 0
x17x3x1 - 2z17z3z1 <= 0
x17x186x1 - 2z17z186z1 <= 0
x17x81x2 - 1z17z81z2 <= 0
x17x14x2 - 2z17z14z2 <= 0
x17x182x2 - 1z17z182z2 <= 0
x17x52x1 - 1z17z52z1 <= 0
x17x52x2 - 1z17z52z2 <= 0
x17x171x1 - 2z17z171z1 <= 0
x17x31x1 - 1z17z31z1 <= 0
x17x119x1 - 2z17z119z1 <= 0
x17x80x1 - 1z17z80z1 <= 0
x17x101x1 - 1z17z101z1 <= 0
x17x89x2 - 1z17z89z2 <= 0
x17x77x2 - 2z17z77z2 <= 0
x60x3x1 - 2z60z3z1 <= 0
x60x186x1 - 2z60z186z1 <= 0
x60x81x2 - 1z60z81z2 <= 0
x60x14x2 - 2z60z14z2 <= 0
x60x182x2 - 1z60z182z2 <= 0
x60x52x1 - 1z60z52z1 <= 0
x60x52x2 - 1z60z52z2 <= 0
x60x171x1 - 2z60z171z1 <= 0
x60x31x1 - 1z60z31z1 <= 0
x60x119x1 - 2z60z119z1 <= 0
x60x80x1 - 1z60z80z1 <= 0
x60x101x1 - 1z60z101z1 <= 0
x60x89x2 - 1z60z89z2 <= 0
x60x77x2 - 2z60z77z2 <= 0
x60x0x1 <= 1
x60x0x2 <= 1
x170x81x2 - 1z170z81z2 <= 0
x170x14x2 - 2z170z14z2 <= 0
x170x182x2 - 1z170z182z2 <= 0
x170x52x2 - 1z170z52z2 <= 0
x170x89x2 - 1z170z89z2 <= 0
x170x77x2 - 2z170z77z2 <= 0
x170x0x2 <= 2
x3x186x1 - 2z3z186z1 <= 0
x3x52x1 - 1z3z52z1 <= 0
x3x171x1 - 2z3z171z1 <= 0
x3x31x1 - 1z3z31z1 <= 0
x3x119x1 - 2z3z119z1 <= 0
x3x80x1 - 1z3z80z1 <= 0
x3x101x1 - 1z3z101z1 <= 0
x3x0x1 <= 2
x186x52x1 - 1z186z52z1 <= 0
x186x171x1 - 2z186z171z1 <= 0
x186x31x1 - 1z186z31z1 <= 0
x186x119x1 - 2z186z119z1 <= 0
x186x80x1 - 1z186z80z1 <= 0
x186x101x1 - 1z186z101z1 <= 0
x186x0x1 <= 2
x81x14x2 - 2z81z14z2 <= 0
x81x138x3 - 2z81z138z3 <= 0
x81x182x2 - 1z81z182z2 <= 0
x81x182x3 - 1z81z182z3 <= 0
x81x127x3 - 2z81z127z3 <= 0
x81x52x2 - 1z81z52z2 <= 0
x81x91x3 - 2z81z91z3 <= 0
x81x31x3 - 1z81z31z3 <= 0
x81x105x3 - 2z81z105z3 <= 0
x81x80x3 - 1z81z80z3 <= 0
x81x101x3 - 1z81z101z3 <= 0
x81x89x2 - 1z81z89z2 <= 0
x81x89x3 - 1z81z89z3 <= 0
x81x77x2 - 2z81z77z2 <= 0
x81x0x2 <= 1
x81x0x3 <= 1
x14x52x2 - 1z14z52z2 <= 0
x14x89x2 - 1z14z89z2 <= 0
x14x77x2 - 2z14z77z2 <= 0
x14x0x2 <= 2
x138x182x3 - 1z138z182z3 <= 0
x138x127x3 - 2z138z127z3 <= 0
x138x91x3 - 2z138z91z3 <= 0
x138x31x3 - 1z138z31z3 <= 0
x138x105x3 - 2z138z105z3 <= 0
x138x80x3 - 1z138z80z3 <= 0
x138x101x3 - 1z138z101z3 <= 0
x138x89x3 - 1z138z89z3 <= 0
x138x0x3 <= 2
x182x127x3 - 2z182z127z3 <= 0
x182x91x3 - 2z182z91z3 <= 0
x182x31x3 - 1z182z31z3 <= 0
x182x80x3 - 1z182z80z3 <= 0
x182x101x3 - 1z182z101z3 <= 0
x182x89x2 - 1z182z89z2 <= 0
x182x89x3 - 1z182z89z3 <= 0
x182x77x2 - 2z182z77z2 <= 0
x182x0x2 <= 1
x182x0x3 <= 1
x127x91x3 - 2z127z91z3 <= 0
x127x31x3 - 1z127z31z3 <= 0
x127x101x3 - 1z127z101z3 <= 0
x127x89x3 - 1z127z89z3 <= 0
x127x0x3 <= 2
x52x80x1 - 1z52z80z1 <= 0
x52x101x1 - 1z52z101z1 <= 0
x52x89x2 - 1z52z89z2 <= 0
x52x77x2 - 2z52z77z2 <= 0
x52x0x1 <= 1
x52x0x2 <= 1
x91x0x3 <= 2
x171x119x1 - 2z171z119z1 <= 0
x171x0x1 <= 2
x31x119x1 - 2z31z119z1 <= 0
x31x0x1 <= 1
x31x0x3 <= 1
x105x80x3 - 1z105z80z3 <= 0
x105x101x3 - 1z105z101z3 <= 0
x105x89x3 - 1z105z89z3 <= 0
x105x0x3 <= 2
x119x0x1 <= 2
x80x89x3 - 1z80z89z3 <= 0
x80x0x1 <= 1
x80x0x3 <= 1
x101x89x3 - 1z101z89z3 <= 0
x101x0x1 <= 1
x101x0x3 <= 1
x89x77x2 - 2z89z77z2 <= 0
x89x0x2 <= 1
x89x0x3 <= 1
x77x0x2 <= 2

Bounds
s106 = 4.570268
s54 = 5.152511
s132 = 4.820004
s185 = 5.383163
s58 = 5.475194
s74 = 5.637607
s160 = 5.303660
s124 = 5.784537
s23 = 5.973085
s17 = 5.966849
6.280000 <= s60 <= 7.280000
6.280000 <= s170 <= 7.280000
6.310000 <= s3 <= 7.310000
6.430000 <= s186 <= 7.430000
6.510000 <= s81 <= 7.510000
6.660000 <= s14 <= 7.660000
6.790000 <= s138 <= 7.790000
6.840000 <= s182 <= 7.840000
6.870000 <= s127 <= 7.870000
7.050000 <= s52 <= 8.050000
7.050000 <= s91 <= 8.050000
7.060000 <= s171 <= 8.060000
7.080000 <= s31 <= 8.080000
7.110000 <= s105 <= 8.110000
7.130000 <= s119 <= 8.130000
7.170000 <= s80 <= 8.170000
7.180000 <= s101 <= 8.180000
7.210000 <= s89 <= 8.210000
7.240000 <= s77 <= 8.240000

General
x106x60x1 x106x3x1 x106x186x1 x106x52x1 x106x171x1 x106x31x1 x106x119x1 x106x80x1 x106x101x1 
x54x60x1 x54x60x2 x54x170x2 x54x3x1 x54x186x1 x54x81x2 x54x14x2 x54x182x2 x54x52x1 x54x52x2 x54x171x1 x54x31x1 x54x119x1 x54x80x1 x54x101x1 x54x89x2 x54x77x2 
x132x81x3 x132x138x3 x132x182x3 x132x127x3 x132x91x3 x132x31x3 x132x105x3 x132x80x3 x132x101x3 x132x89x3 
x185x60x1 x185x60x2 x185x170x2 x185x3x1 x185x186x1 x185x81x2 x185x14x2 x185x182x2 x185x52x1 x185x52x2 x185x171x1 x185x31x1 x185x119x1 x185x80x1 x185x101x1 x185x89x2 x185x77x2 
x58x60x1 x58x60x2 x58x170x2 x58x3x1 x58x186x1 x58x81x2 x58x14x2 x58x182x2 x58x52x1 x58x52x2 x58x171x1 x58x31x1 x58x119x1 x58x80x1 x58x101x1 x58x89x2 x58x77x2 
x74x60x1 x74x60x2 x74x170x2 x74x3x1 x74x186x1 x74x81x2 x74x14x2 x74x182x2 x74x52x1 x74x52x2 x74x171x1 x74x31x1 x74x119x1 x74x80x1 x74x101x1 x74x89x2 x74x77x2 
x160x81x3 x160x138x3 x160x182x3 x160x127x3 x160x91x3 x160x31x3 x160x105x3 x160x80x3 x160x101x3 x160x89x3 
x124x60x2 x124x170x2 x124x81x2 x124x81x3 x124x14x2 x124x138x3 x124x182x2 x124x182x3 x124x127x3 x124x52x2 x124x91x3 x124x31x3 x124x105x3 x124x80x3 x124x101x3 x124x89x2 x124x89x3 x124x77x2 
x23x81x3 x23x138x3 x23x182x3 x23x127x3 x23x91x3 x23x31x3 x23x105x3 x23x80x3 x23x101x3 x23x89x3 
x17x3x1 x17x186x1 x17x81x2 x17x14x2 x17x182x2 x17x52x1 x17x52x2 x17x171x1 x17x31x1 x17x119x1 x17x80x1 x17x101x1 x17x89x2 x17x77x2 
x60x3x1 x60x186x1 x60x81x2 x60x14x2 x60x182x2 x60x52x1 x60x52x2 x60x171x1 x60x31x1 x60x119x1 x60x80x1 x60x101x1 x60x89x2 x60x77x2 x60x0x1 x60x0x2 
x170x81x2 x170x14x2 x170x182x2 x170x52x2 x170x89x2 x170x77x2 x170x0x2 
x3x186x1 x3x52x1 x3x171x1 x3x31x1 x3x119x1 x3x80x1 x3x101x1 x3x0x1 
x186x52x1 x186x171x1 x186x31x1 x186x119x1 x186x80x1 x186x101x1 x186x0x1 
x81x14x2 x81x138x3 x81x182x2 x81x182x3 x81x127x3 x81x52x2 x81x91x3 x81x31x3 x81x105x3 x81x80x3 x81x101x3 x81x89x2 x81x89x3 x81x77x2 x81x0x2 x81x0x3 
x14x52x2 x14x89x2 x14x77x2 x14x0x2 
x138x182x3 x138x127x3 x138x91x3 x138x31x3 x138x105x3 x138x80x3 x138x101x3 x138x89x3 x138x0x3 
x182x127x3 x182x91x3 x182x31x3 x182x80x3 x182x101x3 x182x89x2 x182x89x3 x182x77x2 x182x0x2 x182x0x3 
x127x91x3 x127x31x3 x127x101x3 x127x89x3 x127x0x3 
x52x80x1 x52x101x1 x52x89x2 x52x77x2 x52x0x1 x52x0x2 
x91x0x3 
x171x119x1 x171x0x1 
x31x119x1 x31x0x1 x31x0x3 
x105x80x3 x105x101x3 x105x89x3 x105x0x3 
x119x0x1 
x80x89x3 x80x0x1 x80x0x3 
x101x89x3 x101x0x1 x101x0x3 
x89x77x2 x89x0x2 x89x0x3 
x77x0x2 

Binaries
y60 y170 y3 y186 y81 y14 y138 y182 y127 y52 y91 y171 y31 y105 y119 y80 y101 y89 y77 
z106z60z1 z106z3z1 z106z186z1 z106z52z1 z106z171z1 z106z31z1 z106z119z1 z106z80z1 z106z101z1 
z54z60z1 z54z60z2 z54z170z2 z54z3z1 z54z186z1 z54z81z2 z54z14z2 z54z182z2 z54z52z1 z54z52z2 z54z171z1 z54z31z1 z54z119z1 z54z80z1 z54z101z1 z54z89z2 z54z77z2 
z132z81z3 z132z138z3 z132z182z3 z132z127z3 z132z91z3 z132z31z3 z132z105z3 z132z80z3 z132z101z3 z132z89z3 
z185z60z1 z185z60z2 z185z170z2 z185z3z1 z185z186z1 z185z81z2 z185z14z2 z185z182z2 z185z52z1 z185z52z2 z185z171z1 z185z31z1 z185z119z1 z185z80z1 z185z101z1 z185z89z2 z185z77z2 
z58z60z1 z58z60z2 z58z170z2 z58z3z1 z58z186z1 z58z81z2 z58z14z2 z58z182z2 z58z52z1 z58z52z2 z58z171z1 z58z31z1 z58z119z1 z58z80z1 z58z101z1 z58z89z2 z58z77z2 
z74z60z1 z74z60z2 z74z170z2 z74z3z1 z74z186z1 z74z81z2 z74z14z2 z74z182z2 z74z52z1 z74z52z2 z74z171z1 z74z31z1 z74z119z1 z74z80z1 z74z101z1 z74z89z2 z74z77z2 
z160z81z3 z160z138z3 z160z182z3 z160z127z3 z160z91z3 z160z31z3 z160z105z3 z160z80z3 z160z101z3 z160z89z3 
z124z60z2 z124z170z2 z124z81z2 z124z81z3 z124z14z2 z124z138z3 z124z182z2 z124z182z3 z124z127z3 z124z52z2 z124z91z3 z124z31z3 z124z105z3 z124z80z3 z124z101z3 z124z89z2 z124z89z3 z124z77z2 
z23z81z3 z23z138z3 z23z182z3 z23z127z3 z23z91z3 z23z31z3 z23z105z3 z23z80z3 z23z101z3 z23z89z3 
z17z3z1 z17z186z1 z17z81z2 z17z14z2 z17z182z2 z17z52z1 z17z52z2 z17z171z1 z17z31z1 z17z119z1 z17z80z1 z17z101z1 z17z89z2 z17z77z2 
z60z3z1 z60z186z1 z60z81z2 z60z14z2 z60z182z2 z60z52z1 z60z52z2 z60z171z1 z60z31z1 z60z119z1 z60z80z1 z60z101z1 z60z89z2 z60z77z2 
z170z81z2 z170z14z2 z170z182z2 z170z52z2 z170z89z2 z170z77z2 
z3z186z1 z3z52z1 z3z171z1 z3z31z1 z3z119z1 z3z80z1 z3z101z1 
z186z52z1 z186z171z1 z186z31z1 z186z119z1 z186z80z1 z186z101z1 
z81z14z2 z81z138z3 z81z182z2 z81z182z3 z81z127z3 z81z52z2 z81z91z3 z81z31z3 z81z105z3 z81z80z3 z81z101z3 z81z89z2 z81z89z3 z81z77z2 
z14z52z2 z14z89z2 z14z77z2 
z138z182z3 z138z127z3 z138z91z3 z138z31z3 z138z105z3 z138z80z3 z138z101z3 z138z89z3 
z182z127z3 z182z91z3 z182z31z3 z182z80z3 z182z101z3 z182z89z2 z182z89z3 z182z77z2 
z127z91z3 z127z31z3 z127z101z3 z127z89z3 
z52z80z1 z52z101z1 z52z89z2 z52z77z2 

z171z119z1 
z31z119z1 
z105z80z3 z105z101z3 z105z89z3 

z80z89z3 
z101z89z3 
z89z77z2 


End